Route #1: 4 45 29 27 52 34
Route #2: 46 8 19 54 13 57 15 5
Route #3: 37 20 60 36 47 48 30
Route #4: 2 62 28 61 21
Route #5: 1 43 56 41 42 64 22
Route #6: 16 49 24 23 63 33 6
Route #7: 31 25 55 18 50 44 3 51
Route #8: 17 32 9 39 40
Route #9: 12 58 10 38 11
Route #10: 35 14 59 53 7 26
Cost 825